#######################################################################
#
# This file contains crystal structure data downloaded from the
# Cambridge Structural Database (CSD) hosted by the Cambridge
# Crystallographic Data Centre (CCDC) in cooperation with FIZ Karlsruhe.
#
# Please note that these data are only for research purposes or private use.
# For detailed information please see under Terms & Conditions.
# Full information about CCDC and FIZ Karlsruhe data access policies and
# citation guidelines are available at http://www.ccdc.cam.ac.uk/access/V1
#
# Audit and citation data items may have been added by FIZ Karlsruhe.
# Please retain this information to preserve the provenance of
# this file and to allow appropriate attribution of the data.
#
#######################################################################

data_16960-ICSD
_database_code_depnum_ccdc_archive 'CCDC 1597471'
loop_
_citation_id
_citation_doi
_citation_year
1 10.1002/hlca.19680510820 1968
_audit_update_record
;
2018-02-26 deposited with the CCDC.	2019-04-13 downloaded from the CCDC.
;
_database_code_ICSD              16960
_chemical_name_systematic
;
Cobalt(II) Hexacyanocobaltate Hydrate(4/2.7/16)
;
_chemical_formula_sum
;
C15.9996 H31.9992 Co6.6665 N15.9996 O15.9996
;
_cell_length_a                   10.21
_cell_length_b                   10.21
_cell_length_c                   10.21
_cell_angle_alpha                90
_cell_angle_beta                 90
_cell_angle_gamma                90
_cell_volume                     1064.33
_cell_formula_units_Z            1
_symmetry_space_group_name_H-M   'F m -3 m'
_symmetry_Int_Tables_number      225
_symmetry_cell_setting           cubic
_refine_ls_R_factor_all          0.038
loop_
_symmetry_equiv_pos_site_id
_symmetry_equiv_pos_as_xyz
1 'z, y, -x'
2 'y, x, -z'
3 'x, z, -y'
4 'z, x, -y'
5 'y, z, -x'
6 'x, y, -z'
7 'z, -y, x'
8 'y, -x, z'
9 'x, -z, y'
10 'z, -x, y'
11 'y, -z, x'
12 'x, -y, z'
13 '-z, y, x'
14 '-y, x, z'
15 '-x, z, y'
16 '-z, x, y'
17 '-y, z, x'
18 '-x, y, z'
19 '-z, -y, -x'
20 '-y, -x, -z'
21 '-x, -z, -y'
22 '-z, -x, -y'
23 '-y, -z, -x'
24 '-x, -y, -z'
25 '-z, -y, x'
26 '-y, -x, z'
27 '-x, -z, y'
28 '-z, -x, y'
29 '-y, -z, x'
30 '-x, -y, z'
31 '-z, y, -x'
32 '-y, x, -z'
33 '-x, z, -y'
34 '-z, x, -y'
35 '-y, z, -x'
36 '-x, y, -z'
37 'z, -y, -x'
38 'y, -x, -z'
39 'x, -z, -y'
40 'z, -x, -y'
41 'y, -z, -x'
42 'x, -y, -z'
43 'z, y, x'
44 'y, x, z'
45 'x, z, y'
46 'z, x, y'
47 'y, z, x'
48 'x, y, z'
49 'z, y+1/2, -x+1/2'
50 'z+1/2, y, -x+1/2'
51 'z+1/2, y+1/2, -x'
52 'y, x+1/2, -z+1/2'
53 'y+1/2, x, -z+1/2'
54 'y+1/2, x+1/2, -z'
55 'x, z+1/2, -y+1/2'
56 'x+1/2, z, -y+1/2'
57 'x+1/2, z+1/2, -y'
58 'z, x+1/2, -y+1/2'
59 'z+1/2, x, -y+1/2'
60 'z+1/2, x+1/2, -y'
61 'y, z+1/2, -x+1/2'
62 'y+1/2, z, -x+1/2'
63 'y+1/2, z+1/2, -x'
64 'x, y+1/2, -z+1/2'
65 'x+1/2, y, -z+1/2'
66 'x+1/2, y+1/2, -z'
67 'z, -y+1/2, x+1/2'
68 'z+1/2, -y, x+1/2'
69 'z+1/2, -y+1/2, x'
70 'y, -x+1/2, z+1/2'
71 'y+1/2, -x, z+1/2'
72 'y+1/2, -x+1/2, z'
73 'x, -z+1/2, y+1/2'
74 'x+1/2, -z, y+1/2'
75 'x+1/2, -z+1/2, y'
76 'z, -x+1/2, y+1/2'
77 'z+1/2, -x, y+1/2'
78 'z+1/2, -x+1/2, y'
79 'y, -z+1/2, x+1/2'
80 'y+1/2, -z, x+1/2'
81 'y+1/2, -z+1/2, x'
82 'x, -y+1/2, z+1/2'
83 'x+1/2, -y, z+1/2'
84 'x+1/2, -y+1/2, z'
85 '-z, y+1/2, x+1/2'
86 '-z+1/2, y, x+1/2'
87 '-z+1/2, y+1/2, x'
88 '-y, x+1/2, z+1/2'
89 '-y+1/2, x, z+1/2'
90 '-y+1/2, x+1/2, z'
91 '-x, z+1/2, y+1/2'
92 '-x+1/2, z, y+1/2'
93 '-x+1/2, z+1/2, y'
94 '-z, x+1/2, y+1/2'
95 '-z+1/2, x, y+1/2'
96 '-z+1/2, x+1/2, y'
97 '-y, z+1/2, x+1/2'
98 '-y+1/2, z, x+1/2'
99 '-y+1/2, z+1/2, x'
100 '-x, y+1/2, z+1/2'
101 '-x+1/2, y, z+1/2'
102 '-x+1/2, y+1/2, z'
103 '-z, -y+1/2, -x+1/2'
104 '-z+1/2, -y, -x+1/2'
105 '-z+1/2, -y+1/2, -x'
106 '-y, -x+1/2, -z+1/2'
107 '-y+1/2, -x, -z+1/2'
108 '-y+1/2, -x+1/2, -z'
109 '-x, -z+1/2, -y+1/2'
110 '-x+1/2, -z, -y+1/2'
111 '-x+1/2, -z+1/2, -y'
112 '-z, -x+1/2, -y+1/2'
113 '-z+1/2, -x, -y+1/2'
114 '-z+1/2, -x+1/2, -y'
115 '-y, -z+1/2, -x+1/2'
116 '-y+1/2, -z, -x+1/2'
117 '-y+1/2, -z+1/2, -x'
118 '-x, -y+1/2, -z+1/2'
119 '-x+1/2, -y, -z+1/2'
120 '-x+1/2, -y+1/2, -z'
121 '-z, -y+1/2, x+1/2'
122 '-z+1/2, -y, x+1/2'
123 '-z+1/2, -y+1/2, x'
124 '-y, -x+1/2, z+1/2'
125 '-y+1/2, -x, z+1/2'
126 '-y+1/2, -x+1/2, z'
127 '-x, -z+1/2, y+1/2'
128 '-x+1/2, -z, y+1/2'
129 '-x+1/2, -z+1/2, y'
130 '-z, -x+1/2, y+1/2'
131 '-z+1/2, -x, y+1/2'
132 '-z+1/2, -x+1/2, y'
133 '-y, -z+1/2, x+1/2'
134 '-y+1/2, -z, x+1/2'
135 '-y+1/2, -z+1/2, x'
136 '-x, -y+1/2, z+1/2'
137 '-x+1/2, -y, z+1/2'
138 '-x+1/2, -y+1/2, z'
139 '-z, y+1/2, -x+1/2'
140 '-z+1/2, y, -x+1/2'
141 '-z+1/2, y+1/2, -x'
142 '-y, x+1/2, -z+1/2'
143 '-y+1/2, x, -z+1/2'
144 '-y+1/2, x+1/2, -z'
145 '-x, z+1/2, -y+1/2'
146 '-x+1/2, z, -y+1/2'
147 '-x+1/2, z+1/2, -y'
148 '-z, x+1/2, -y+1/2'
149 '-z+1/2, x, -y+1/2'
150 '-z+1/2, x+1/2, -y'
151 '-y, z+1/2, -x+1/2'
152 '-y+1/2, z, -x+1/2'
153 '-y+1/2, z+1/2, -x'
154 '-x, y+1/2, -z+1/2'
155 '-x+1/2, y, -z+1/2'
156 '-x+1/2, y+1/2, -z'
157 'z, -y+1/2, -x+1/2'
158 'z+1/2, -y, -x+1/2'
159 'z+1/2, -y+1/2, -x'
160 'y, -x+1/2, -z+1/2'
161 'y+1/2, -x, -z+1/2'
162 'y+1/2, -x+1/2, -z'
163 'x, -z+1/2, -y+1/2'
164 'x+1/2, -z, -y+1/2'
165 'x+1/2, -z+1/2, -y'
166 'z, -x+1/2, -y+1/2'
167 'z+1/2, -x, -y+1/2'
168 'z+1/2, -x+1/2, -y'
169 'y, -z+1/2, -x+1/2'
170 'y+1/2, -z, -x+1/2'
171 'y+1/2, -z+1/2, -x'
172 'x, -y+1/2, -z+1/2'
173 'x+1/2, -y, -z+1/2'
174 'x+1/2, -y+1/2, -z'
175 'z, y+1/2, x+1/2'
176 'z+1/2, y, x+1/2'
177 'z+1/2, y+1/2, x'
178 'y, x+1/2, z+1/2'
179 'y+1/2, x, z+1/2'
180 'y+1/2, x+1/2, z'
181 'x, z+1/2, y+1/2'
182 'x+1/2, z, y+1/2'
183 'x+1/2, z+1/2, y'
184 'z, x+1/2, y+1/2'
185 'z+1/2, x, y+1/2'
186 'z+1/2, x+1/2, y'
187 'y, z+1/2, x+1/2'
188 'y+1/2, z, x+1/2'
189 'y+1/2, z+1/2, x'
190 'x, y+1/2, z+1/2'
191 'x+1/2, y, z+1/2'
192 'x+1/2, y+1/2, z'
loop_
_atom_site_label
_atom_site_type_symbol
_atom_site_fract_x
_atom_site_fract_y
_atom_site_fract_z
Co1 Co2+ 0 0 0
Co2 Co3+ 0.5 0.5 0.5
C1 C2+ 0.316 0 0
N1 N3- 0.204 0 0
#Position of 32 Elements of H Are Undetermined.
#End of data_16960-ICSD
